Version identifier: 22.1.0.0 | 2022-03-09 | 1a383f8ce
CPXPARAM_Threads                                 1
CPXPARAM_MIP_Strategy_VariableSelect             3
CPXPARAM_TimeLimit                               599.67286339299994
1 of 1 MIP starts provided solutions.
MIP start 'm1' defined initial solution with objective 94.0000.
Tried aggregator 1 time.
MIP Presolve eliminated 20 rows and 0 columns.
MIP Presolve modified 259 coefficients.
Reduced MIP has 901 rows, 2100 columns, and 24656 nonzeros.
Reduced MIP has 2100 binaries, 0 generals, 0 SOSs, and 0 indicators.
Presolve time = 0.04 sec. (58.37 ticks)
Probing time = 0.01 sec. (7.11 ticks)
Tried aggregator 1 time.
Detecting symmetries...
MIP Presolve modified 15 coefficients.
Reduced MIP has 901 rows, 2100 columns, and 25020 nonzeros.
Reduced MIP has 2100 binaries, 0 generals, 0 SOSs, and 0 indicators.
Presolve time = 0.03 sec. (29.48 ticks)
Probing time = 0.01 sec. (7.15 ticks)
Clique table members: 785.
MIP emphasis: balance optimality and feasibility.
MIP search method: dynamic search.
Parallel mode: none, using 1 thread.
Root relaxation solution time = 0.20 sec. (210.65 ticks)

        Nodes                                         Cuts/
   Node  Left     Objective  IInf  Best Integer    Best Bound    ItCnt     Gap

*     0+    0                           94.0000     5050.0000              --- 
      0     0      100.0000   409       94.0000      100.0000     1975    6.38%
      0     0      100.0000   168       94.0000    Cliques: 1     2088    6.38%
      0     0      100.0000   439       94.0000     Cuts: 135     3529    6.38%
      0     0      100.0000   129       94.0000    Cliques: 1     3556    6.38%
      0     0      100.0000   309       94.0000      Cuts: 46     4018    6.38%
Detecting symmetries...
      0     2      100.0000   161       94.0000      100.0000     4018    6.38%
Elapsed time = 6.36 sec. (5899.17 ticks, tree = 0.01 MB, solutions = 1)
      1     3      100.0000   310       94.0000      100.0000     7822    6.38%
      3     5      100.0000   236       94.0000      100.0000     8493    6.38%
      5     7      100.0000   222       94.0000      100.0000    10146    6.38%
      7     9      100.0000   285       94.0000      100.0000    12819    6.38%
     10    12      100.0000   311       94.0000      100.0000    13584    6.38%
     13    15      100.0000   271       94.0000      100.0000    13968    6.38%
     16    18      100.0000   269       94.0000      100.0000    15038    6.38%
     19    21      100.0000   213       94.0000      100.0000    15665    6.38%
     20    22      100.0000   256       94.0000      100.0000    16008    6.38%
     30    32      100.0000   271       94.0000      100.0000    19931    6.38%
Elapsed time = 10.67 sec. (10144.37 ticks, tree = 0.04 MB, solutions = 1)
     40    42      100.0000   208       94.0000      100.0000    22612    6.38%
     50    52      100.0000   231       94.0000      100.0000    26327    6.38%
     63    65      100.0000   285       94.0000      100.0000    31625    6.38%
     72    74      100.0000   190       94.0000      100.0000    33447    6.38%
     83    85      100.0000   222       94.0000      100.0000    36517    6.38%
     96    98      100.0000   255       94.0000      100.0000    38211    6.38%
    110   112      100.0000   254       94.0000      100.0000    40238    6.38%
    121   123      100.0000   245       94.0000      100.0000    42294    6.38%
    135   137      100.0000   240       94.0000      100.0000    44824    6.38%
    152   154      100.0000   163       94.0000      100.0000    48156    6.38%
Elapsed time = 20.89 sec. (19958.18 ticks, tree = 0.18 MB, solutions = 1)
    187   166      100.0000   167       94.0000      100.0000    56688    6.38%
    216   178       97.8000   132       94.0000      100.0000    64957    6.38%
    252   183       96.0000   150       94.0000      100.0000    70061    6.38%
    296   187       97.0000    91       94.0000      100.0000    76153    6.38%
    336   193       96.0000    86       94.0000      100.0000    81984    6.38%
    369   197      100.0000   285       94.0000      100.0000    85968    6.38%
    382   210      100.0000   254       94.0000      100.0000    87947    6.38%
    395   223      100.0000   255       94.0000      100.0000    91082    6.38%
    409   236      100.0000   224       94.0000      100.0000    94823    6.38%
    430   249      100.0000   165       94.0000      100.0000   102604    6.38%
Elapsed time = 31.61 sec. (29855.08 ticks, tree = 0.28 MB, solutions = 1)
    453   262      100.0000   176       94.0000      100.0000   111228    6.38%
    478   276      100.0000   143       94.0000      100.0000   119681    6.38%
    518   281       96.0000   127       94.0000      100.0000   127413    6.38%
    560   279       97.0000   120       94.0000      100.0000   134228    6.38%
    593   286       99.0000   170       94.0000      100.0000   139981    6.38%
    633   288       99.0000   199       94.0000      100.0000   147806    6.38%
    668   290       98.5762   182       94.0000      100.0000   155527    6.38%
    698   299       98.5975   181       94.0000      100.0000   161951    6.38%
    738   310       95.0000   113       94.0000      100.0000   166820    6.38%
    783   318       96.0000   105       94.0000      100.0000   172929    6.38%
Elapsed time = 42.32 sec. (39598.12 ticks, tree = 0.37 MB, solutions = 1)
    815   327      100.0000   162       94.0000      100.0000   177691    6.38%
    849   345       96.0000   135       94.0000      100.0000   182228    6.38%
    890   359       96.0000   144       94.0000      100.0000   185983    6.38%
    935   365       96.0000    96       94.0000      100.0000   190553    6.38%
    988   368       96.0000   107       94.0000      100.0000   195780    6.38%
   1032   373       99.7500   155       94.0000      100.0000   200693    6.38%
   1063   381    infeasible             94.0000      100.0000   208966    6.38%
   1091   393       98.7289   188       94.0000      100.0000   216289    6.38%
   1121   403       99.0000   171       94.0000      100.0000   221912    6.38%
   1153   412      100.0000   162       94.0000      100.0000   227157    6.38%
Elapsed time = 52.82 sec. (49278.52 ticks, tree = 0.47 MB, solutions = 1)
   1188   421       95.0000   108       94.0000      100.0000   233000    6.38%
   1230   426       96.0000   146       94.0000      100.0000   237992    6.38%
   1273   431       95.0000    98       94.0000      100.0000   242954    6.38%
   1310   434       99.0000   128       94.0000      100.0000   247938    6.38%
*  1354   416      integral     0       95.0000      100.0000   255151    5.26%
   1357   416      100.0000   165       95.0000      100.0000   255842    5.26%
   1401   424       96.0000    87       95.0000      100.0000   261618    5.26%
   1440   433       99.0000   150       95.0000      100.0000   265094    5.26%
   1477   437       99.0000   141       95.0000      100.0000   269701    5.26%
   1517   437    infeasible             95.0000      100.0000   274632    5.26%
   1554   439       99.0000   153       95.0000      100.0000   278840    5.26%
Elapsed time = 63.37 sec. (58971.03 ticks, tree = 0.50 MB, solutions = 2)
   1590   448       96.0000    96       95.0000      100.0000   284151    5.26%
   1631   456       96.0000   132       95.0000      100.0000   289426    5.26%
   1665   465       96.0000    83       95.0000      100.0000   296271    5.26%
   1702   470       96.0000   110       95.0000      100.0000   303321    5.26%
   1732   480      100.0000   185       95.0000      100.0000   309089    5.26%
   1767   488      100.0000   187       95.0000      100.0000   313065    5.26%
   1797   494    infeasible             95.0000      100.0000   320643    5.26%
   1824   502    infeasible             95.0000      100.0000   327924    5.26%
   1851   513      100.0000   158       95.0000      100.0000   331355    5.26%
   1873   532       98.0000   157       95.0000      100.0000   332962    5.26%
Elapsed time = 74.02 sec. (68695.67 ticks, tree = 0.62 MB, solutions = 2)
   1914   520       98.0000   151       95.0000      100.0000   342831    5.26%
   1946   518      100.0000   198       95.0000      100.0000   348525    5.26%

Performing restart 1

Repeating presolve.
Tried aggregator 1 time.
MIP Presolve eliminated 0 rows and 95 columns.
MIP Presolve modified 12 coefficients.
Reduced MIP has 901 rows, 2005 columns, and 17752 nonzeros.
Reduced MIP has 2005 binaries, 0 generals, 0 SOSs, and 0 indicators.
Presolve time = 0.01 sec. (11.65 ticks)
Tried aggregator 1 time.
Reduced MIP has 901 rows, 2005 columns, and 17752 nonzeros.
Reduced MIP has 2005 binaries, 0 generals, 0 SOSs, and 0 indicators.
Presolve time = 0.01 sec. (12.34 ticks)
Represolve time = 0.15 sec. (71.74 ticks)
   1949     0      100.0000   230       95.0000    Cliques: 5   351286    5.26%
   1949     0      100.0000   312       95.0000     Cuts: 200   351714    5.26%
   1949     0      100.0000   190       95.0000    Cliques: 2   351893    5.26%
   1949     0      100.0000   263       95.0000     Cuts: 228   352602    5.26%
   1949     0      100.0000   235       95.0000      Cuts: 11   352982    5.26%
   1949     0      100.0000   289       95.0000     Cuts: 143   353938    5.26%
   1949     0      100.0000   172       95.0000      Cuts: 10   354142    5.26%
   1949     0      100.0000   290       95.0000     Cuts: 128   354643    5.26%
   1949     2      100.0000   144       95.0000      100.0000   354643    5.26%
   1952     5      100.0000   303       95.0000      100.0000   361978    5.26%
   1960    13      100.0000   424       95.0000      100.0000   364963    5.26%
   1969    22      100.0000   244       95.0000      100.0000   366332    5.26%
   1980    33      100.0000   365       95.0000      100.0000   369075    5.26%
   1994    47      100.0000   236       95.0000      100.0000   371292    5.26%
   2008    61      100.0000   219       95.0000      100.0000   374470    5.26%
   2022    75      100.0000   177       95.0000      100.0000   377084    5.26%
Elapsed time = 97.54 sec. (90506.74 ticks, tree = 0.56 MB, solutions = 2)
   2039    92      100.0000   230       95.0000      100.0000   381488    5.26%
   2058   107       99.0000   158       95.0000      100.0000   386048    5.26%
   2088   120       97.0000   132       95.0000      100.0000   391424    5.26%
   2119   126       99.0000   114       95.0000      100.0000   397751    5.26%
   2145   137       97.0000   145       95.0000      100.0000   403503    5.26%
*  2153   135      integral     0       96.0000      100.0000   404122    4.17%
*  2168   123      integral     0       97.0000      100.0000   407565    3.09%
   2178   127       98.0000    60       97.0000      100.0000   410801    3.09%
   2202   137      100.0000   183       97.0000      100.0000   414985    3.09%
   2235   144       98.0000   135       97.0000      100.0000   420055    3.09%
   2266   148       99.0000   157       97.0000      100.0000   425927    3.09%
   2293   154       99.0000   178       97.0000      100.0000   430654    3.09%
Elapsed time = 108.29 sec. (100408.08 ticks, tree = 1.20 MB, solutions = 4)
   2327   157      100.0000   223       97.0000      100.0000   435761    3.09%
   2349   163      100.0000   193       97.0000      100.0000   440289    3.09%
   2389   168      100.0000   165       97.0000      100.0000   444412    3.09%
   2409   184      100.0000   165       97.0000      100.0000   449634    3.09%
   2442   192       98.0000   111       97.0000      100.0000   454326    3.09%
   2481   194  -1.00000e+75   107       97.0000      100.0000   458578    3.09%
   2505   216       98.0000   124       97.0000      100.0000   459703    3.09%
*  2538   187      integral     0       98.0000      100.0000   463502    2.04%
   2543   187       99.0000   128       98.0000      100.0000   464219    2.04%
   2584   185      100.0000   154       98.0000      100.0000   469913    2.04%
   2713   200    infeasible             98.0000      100.0000   487838    2.04%
Elapsed time = 121.94 sec. (113056.55 ticks, tree = 1.58 MB, solutions = 5)
   2856   209      100.0000   171       98.0000      100.0000   510369    2.04%
   2996   219       99.0000   156       98.0000      100.0000   532096    2.04%
   3134   228       99.0000   150       98.0000      100.0000   554858    2.04%
   3271   237      100.0000   155       98.0000      100.0000   575471    2.04%
   3410   243       99.0000   163       98.0000      100.0000   599186    2.04%
   3549   247      100.0000   158       98.0000      100.0000   619267    2.04%
   3682   257       99.0000   144       98.0000      100.0000   642714    2.04%
   3805   279       99.0000   163       98.0000      100.0000   659471    2.04%
   3928   286       99.0000   146       98.0000      100.0000   683051    2.04%
   4061   298       99.0000   140       98.0000      100.0000   702011    2.04%
Elapsed time = 163.26 sec. (151416.85 ticks, tree = 2.34 MB, solutions = 5)
   4197   306      100.0000   131       98.0000      100.0000   718679    2.04%
   4333   316    infeasible             98.0000      100.0000   737435    2.04%
   4466   325       99.0000   140       98.0000      100.0000   754002    2.04%
   4601   330       99.0000   160       98.0000      100.0000   772581    2.04%
   4725   338       99.0000   145       98.0000      100.0000   793258    2.04%
   4850   349      100.0000   160       98.0000      100.0000   817134    2.04%
   4986   351      100.0000   168       98.0000      100.0000   840532    2.04%
   5124   353      100.0000   165       98.0000      100.0000   863891    2.04%
   5261   359      100.0000   171       98.0000      100.0000   880824    2.04%
   5395   369      100.0000   178       98.0000      100.0000   891505    2.04%
Elapsed time = 204.56 sec. (189706.05 ticks, tree = 2.89 MB, solutions = 5)
   5525   380       99.0000   155       98.0000      100.0000   901297    2.04%
   5653   391      100.0000   172       98.0000      100.0000   911861    2.04%
   5791   395    infeasible             98.0000      100.0000   923377    2.04%
   5933   397       99.0000   193       98.0000      100.0000   935516    2.04%
   6076   403       99.0000   166       98.0000      100.0000   946542    2.04%
   6208   420       99.0000   176       98.0000      100.0000   955821    2.04%
   6333   426       99.0000   160       98.0000      100.0000   969635    2.04%
   6458   433       99.0000   151       98.0000      100.0000   980631    2.04%
   6589   446       99.0000   149       98.0000      100.0000   993586    2.04%
   6728   453       99.0000   174       98.0000      100.0000  1004976    2.04%
Elapsed time = 245.53 sec. (228105.28 ticks, tree = 3.59 MB, solutions = 5)
   6869   454       99.0000   154       98.0000      100.0000  1015734    2.04%
   7003   457      100.0000   173       98.0000      100.0000  1027408    2.04%
   7129   479       99.0000   135       98.0000      100.0000  1037618    2.04%
   7251   497       99.0000   159       98.0000      100.0000  1047160    2.04%
   7381   510      100.0000   179       98.0000      100.0000  1058469    2.04%
   7507   522       99.0000   174       98.0000      100.0000  1067784    2.04%
   7634   531      100.0000   171       98.0000      100.0000  1078616    2.04%
   7758   545      100.0000   163       98.0000      100.0000  1090644    2.04%
   7899   556      100.0000   194       98.0000      100.0000  1101303    2.04%
   8039   573       99.0000   160       98.0000      100.0000  1111035    2.04%
Elapsed time = 286.69 sec. (266510.58 ticks, tree = 4.61 MB, solutions = 5)
   8180   582       99.0000   106       98.0000      100.0000  1121329    2.04%
   8324   592       99.0000   138       98.0000      100.0000  1132144    2.04%
   8464   614       99.0000   171       98.0000      100.0000  1143659    2.04%
   8613   618      100.0000   148       98.0000      100.0000  1155316    2.04%
   8744   632       99.0000   155       98.0000      100.0000  1166477    2.04%
   8877   648       99.0000   145       98.0000      100.0000  1177497    2.04%
   9004   670       99.0000   136       98.0000      100.0000  1187947    2.04%
   9139   674    infeasible             98.0000      100.0000  1199957    2.04%
   9261   682    infeasible             98.0000      100.0000  1212538    2.04%
   9376   685       99.0000   180       98.0000      100.0000  1229207    2.04%
Elapsed time = 328.01 sec. (304882.35 ticks, tree = 5.53 MB, solutions = 5)
   9504   689       99.0000   168       98.0000      100.0000  1243177    2.04%
   9617   694      100.0000   177       98.0000      100.0000  1266079    2.04%
   9729   714      100.0000   181       98.0000      100.0000  1282076    2.04%
   9860   740       99.0000   140       98.0000      100.0000  1299800    2.04%
  10017   752       99.0000   125       98.0000      100.0000  1317127    2.04%
  10168   765       99.0000   129       98.0000      100.0000  1337717    2.04%
  10284   797       99.0000   168       98.0000      100.0000  1355954    2.04%
  10409   814      100.0000   179       98.0000      100.0000  1373534    2.04%
  10529   828      100.0000   176       98.0000      100.0000  1395815    2.04%
  10659   831      100.0000   174       98.0000      100.0000  1407988    2.04%
Elapsed time = 369.52 sec. (343339.94 ticks, tree = 6.74 MB, solutions = 5)
  10768   852       99.0000   149       98.0000      100.0000  1423775    2.04%
  10904   851       99.0000   178       98.0000      100.0000  1441103    2.04%
  11045   863       99.0000   131       98.0000      100.0000  1456153    2.04%
  11185   868       99.0000   127       98.0000      100.0000  1471840    2.04%
  11306   887       99.0000   141       98.0000      100.0000  1487269    2.04%
  11437   899    infeasible             98.0000      100.0000  1503985    2.04%
  11549   899       99.0000   129       98.0000      100.0000  1519305    2.04%
  11674   925       99.0000   115       98.0000      100.0000  1537678    2.04%
  11808   936       99.0000   151       98.0000      100.0000  1553503    2.04%
  11953   935      100.0000   161       98.0000      100.0000  1574833    2.04%
Elapsed time = 417.52 sec. (387692.08 ticks, tree = 7.59 MB, solutions = 5)
  12086   950       99.0000   140       98.0000      100.0000  1591940    2.04%
  12218   959       99.0000    68       98.0000      100.0000  1611640    2.04%
  12354   963    infeasible             98.0000      100.0000  1631580    2.04%
  12480   987      100.0000   166       98.0000      100.0000  1649954    2.04%
  12607  1003       99.0000   118       98.0000      100.0000  1666670    2.04%
  12731  1018      100.0000   132       98.0000      100.0000  1687482    2.04%
  12856  1031       99.0000   151       98.0000      100.0000  1705576    2.04%
  12991  1044       99.0000   118       98.0000      100.0000  1722568    2.04%
  13115  1061       99.0000   138       98.0000      100.0000  1739602    2.04%
  13229  1086      100.0000   169       98.0000      100.0000  1753289    2.04%
Elapsed time = 459.61 sec. (425998.52 ticks, tree = 8.89 MB, solutions = 5)
  13346  1111       99.0000   125       98.0000      100.0000  1769699    2.04%
  13481  1114    infeasible             98.0000      100.0000  1784176    2.04%
  13605  1137      100.0000   142       98.0000      100.0000  1795009    2.04%
  13751  1135    infeasible             98.0000      100.0000  1808255    2.04%
  13883  1150       99.0000   151       98.0000      100.0000  1819799    2.04%
  14022  1152      100.0000   158       98.0000      100.0000  1832825    2.04%
  14151  1168      100.0000   158       98.0000      100.0000  1844980    2.04%
  14280  1172    infeasible             98.0000      100.0000  1857143    2.04%
  14414  1180       99.0000   144       98.0000      100.0000  1867466    2.04%
  14546  1193      100.0000   160       98.0000      100.0000  1878098    2.04%
Elapsed time = 500.96 sec. (464300.62 ticks, tree = 9.78 MB, solutions = 5)
  14673  1211       99.0000   171       98.0000      100.0000  1887962    2.04%
  14801  1222      100.0000   153       98.0000      100.0000  1899860    2.04%
  14925  1223      100.0000   202       98.0000      100.0000  1915390    2.04%
  15055  1245       99.0000   149       98.0000      100.0000  1925972    2.04%
  15183  1260       99.0000   136       98.0000      100.0000  1938235    2.04%
  15317  1261      100.0000   171       98.0000      100.0000  1951001    2.04%
  15459  1272      100.0000   139       98.0000      100.0000  1962474    2.04%
  15590  1287      100.0000   178       98.0000      100.0000  1974088    2.04%
  15708  1318       99.0000   139       98.0000      100.0000  1983041    2.04%
Starting limited solution polishing.
  15858  1317       99.0000   110       98.0000      100.0000  1996414    2.04%
Elapsed time = 542.24 sec. (502719.26 ticks, tree = 10.83 MB, solutions = 5)
  15990  1327    infeasible             98.0000      100.0000  2007886    2.04%
  16113  1342      100.0000   158       98.0000      100.0000  2019339    2.04%
  16242  1354      100.0000   162       98.0000      100.0000  2031294    2.04%
  16379  1359       99.0000   135       98.0000      100.0000  2042893    2.04%
  16473  1415       99.0000   151       98.0000      100.0000  2053306    2.04%
  16598  1434      100.0000   140       98.0000      100.0000  2064119    2.04%
  16738  1436      100.0000   182       98.0000      100.0000  2076913    2.04%
  16874  1444       99.0000   142       98.0000      100.0000  2088096    2.04%
  17003  1440      100.0000   184       98.0000      100.0000  2101960    2.04%
  17102  1492       99.0000   141       98.0000      100.0000  2107282    2.04%
Elapsed time = 583.39 sec. (541066.98 ticks, tree = 12.27 MB, solutions = 5)
  17222  1514       99.0000   164       98.0000      100.0000  2118034    2.04%
  17252  1512    infeasible             98.0000      100.0000  2121787    2.04%
* 17349+  397                           99.0000      100.0000             1.01%

Clique cuts applied:  60
Zero-half cuts applied:  2

Root node processing (before b&c):
  Real time             =    6.35 sec. (5890.70 ticks)
Sequential b&c:
  Real time             =  593.33 sec. (550162.75 ticks)
                          ------------
Total (root+branch&cut) =  599.68 sec. (556053.45 ticks)
Primal:	99
Dual:	100
Status:	Feasible
Time:	599.65
Sequence:
	4
	19
	0
	4
	19
	17
	11
	1
	3
	7
	15
	11
	3
	1
	7
	14
	9
	19
	4
	17
	11
	2
	16
	0
	2
	16
	11
	18
	15
	6
	8
	19
	5
	3
	19
	13
	4
	0
	19
	16
	11
	2
	16
	0
	12
	10
	18
	9
	15
	7
	14
	1
	9
	8
	7
	1
	3
	11
	15
	14
	0
	19
	4
	11
	12
	16
	18
	12
	9
	10
	2
	17
	6
	8
	19
	5
	3
	13
	15
	11
	6
	16
	12
	8
	9
	10
	2
	17
	10
	12
	3
	5
	13
	14
	1
	9
	8
	12
	16
